48553.38,56.94,69.05
51884.53,53.28,64.62
43040.22,64.23,77.89
50068.33,55.22,66.96
46382.57,59.6,72.28
43286.23,63.87,77.45
60165.95,45.95,55.72
51085.33,54.12,65.63
47365.68,58.37,70.78
51575.86,53.6,65.0
47640.7,58.03,70.37
41395.01,66.79,80.99
55299.42,49.99,60.63
42711.42,64.73,78.49
49875.29,55.43,67.22
47392.17,58.33,70.74
50441.1,54.81,66.47
56661.81,48.79,59.17
45109.76,61.29,74.32
48659.6,56.82,68.9
